/*********************************************
 * OPL 12.6.1.0 Data
 * Author: Administrator
 * Creation Date: 2018-4-20 at обнГ9:07:22
 *********************************************/
nbMetals=3;
nbRaw=2;
nbScrap=2;
nbIngo=1;
costMetals=[22,10,13];
costRaws=[6,5];
costScraps=[7,8];
costIngos=[9];
low=[0.05,0.3,0.6];
up=[0.1,0.4,0.8];
percRaw=[[0.2,0.01],[0.05,0],[0.05,0.3]];
percScrap=[[0,0.01],[0.6,0],[0.4,0.7]];
percIngo=[[0.1],[0.45],[0.45]];
alloy=71;